5,7,9,6,10,1,3,5,1,2,1,7,3,8,6,2,7,0,6,10,3,6,10,2,9,1,9,3,9,8,2,10,2,8,8,5,10,1,1,9,0,8,8,1,5,3,8,3,9,1,9,10,2,0,6,0,9,9,7,2,6,10,9,6,8,9,6,0,2,4,4,9,0,3,1,2,8,3,2,1,2,8,4,7,10,4,6,10,4,7,3,9,3,3,9,5,2,0,1,3
